
Gurobi 6.5.2 (linux64) logging started Mon Aug 29 10:57:52 2016

Optimize a model with 101 rows, 418 columns and 861 nonzeros
Coefficient statistics:
  Matrix range    [1e+00, 2e+00]
  Objective range [1e+00, 1e+02]
  Bounds range    [1e+00, 1e+00]
  RHS range       [1e+00, 1e+00]
Found heuristic solution: objective 2129
Presolve removed 42 rows and 32 columns
Presolve time: 0.00s
Presolved: 59 rows, 386 columns, 776 nonzeros
Variable types: 0 continuous, 386 integer (386 binary)

Root relaxation: objective 8.485000e+02, 69 iterations, 0.00 seconds

    Nodes    |    Current Node    |     Objective Bounds      |     Work
 Expl Unexpl |  Obj  Depth IntInf | Incumbent    BestBd   Gap | It/Node Time

     0     0  848.50000    0   10 2129.00000  848.50000  60.1%     -    0s
H    0     0                    1347.0000000  848.50000  37.0%     -    0s
H    0     0                    1290.0000000  848.50000  34.2%     -    0s
H    0     0                     867.0000000  848.50000  2.13%     -    0s
     0     0     cutoff    0       867.00000  866.00087  0.12%     -    0s

Cutting planes:
  Gomory: 5
  Cover: 12
  Zero half: 1

Explored 0 nodes (76 simplex iterations) in 0.01 seconds
Thread count was 8 (of 8 available processors)

Optimal solution found (tolerance 1.00e-04)
Best objective 8.670000000000e+02, best bound 8.670000000000e+02, gap 0.0%
